# Objective value = 2.9355103376370715e+02
x[0] 0
x[1] 1
x[2] 0
x[3] 0
x[4] 0
x[5] 0
x[6] 0
x[7] 0
x[8] 1
x[9] 1
x[10] 1
x[11] 1
x[12] 0
x[13] 0
x[14] 0
x[15] 1
x[16] 1
x[17] 1
x[18] 1
x[19] 1
x[20] 0
x[21] 1
x[22] 0
x[23] 0
x[24] 1
x[25] 0
x[26] 1
x[27] 1
x[28] 1
x[29] 1
x[30] 1
x[31] 0
x[32] 1
x[33] 1
x[34] 1
x[35] 0
x[36] 1
x[37] 0
x[38] 0
x[39] 1
x[40] 1
x[41] 0
x[42] 1
x[43] 1
x[44] 1
x[45] 1
x[46] 0
x[47] 0
x[48] 1
x[49] 1
x[50] 1
x[51] 1
x[52] 1
x[53] 1
x[54] 0
x[55] 0
x[56] 0
x[57] 0
x[58] 1
x[59] 1
x[60] 1
x[61] 0
x[62] 1
x[63] 0
x[64] 1
x[65] 1
x[66] 1
x[67] 1
x[68] 1
x[69] 1
x[70] 0
x[71] 0
x[72] 1
x[73] 1
x[74] 0
x[75] 1
x[76] 0
x[77] 1
x[78] 1
x[79] 0
x[80] 0
x[81] 1
x[82] 1
x[83] 0
x[84] 0
x[85] 0
x[86] 0
x[87] 1
x[88] 1
x[89] 0
x[90] 0
x[91] 0
x[92] 1
x[93] 0
x[94] 1
x[95] 0
x[96] 0
x[97] 0
x[98] 0
x[99] 0
x[100] 1
x[101] 1
x[102] 1
x[103] 1
x[104] 0
x[105] 0
x[106] 1
x[107] 1
x[108] 1
x[109] 0
x[110] 0
x[111] 0
x[112] 1
x[113] 0
x[114] 0
x[115] 0
x[116] 1
x[117] 1
x[118] 0
x[119] 1
x[120] 0
x[121] 1
x[122] 0
x[123] 0
x[124] 0
x[125] 1
x[126] 0
x[127] 0
x[128] 0
x[129] 0
x[130] 1
x[131] 1
x[132] 1
x[133] 0
x[134] 0
x[135] 0
x[136] 1
x[137] 1
x[138] 0
x[139] 1
x[140] 0
x[141] 1
x[142] 1
x[143] 1
x[144] 0
x[145] 1
x[146] 1
x[147] 1
x[148] 1
x[149] 0
x[150] 0
x[151] 1
x[152] 1
x[153] 0
x[154] 0
x[155] 0
x[156] 1
x[157] 0
x[158] 1
x[159] 1
x[160] 0
x[161] 0
x[162] 1
x[163] 0
x[164] 0
x[165] 1
x[166] 0
x[167] 1
x[168] 0
x[169] 1
x[170] 1
x[171] 0
x[172] 0
x[173] 1
x[174] 0
x[175] 1
x[176] 0
x[177] 1
x[178] 1
x[179] 0
x[180] 0
x[181] 1
x[182] 0
x[183] 0
x[184] 0
x[185] 0
x[186] 0
x[187] 0
x[188] 1
x[189] 0
x[190] 0
x[191] 0
x[192] 1
x[193] 1
x[194] 1
x[195] 0
x[196] 0
x[197] 0
x[198] 0
x[199] 1
x[200] 1
x[201] 0
x[202] 0
x[203] 1
x[204] 1
x[205] 0
x[206] 0
x[207] 1
x[208] 0
x[209] 1
x[210] 0
x[211] 1
x[212] 1
x[213] 1
x[214] 0
x[215] 1
x[216] 0
x[217] 1
x[218] 0
x[219] 0
x[220] 1
x[221] 1
x[222] 0
x[223] 0
x[224] 1
x[225] 0
x[226] 0
x[227] 0
x[228] 0
x[229] 0
x[230] 0
x[231] 1
x[232] 0
x[233] 0
x[234] 0
x[235] 1
x[236] 1
x[237] 1
x[238] 0
x[239] 0
x[240] 1
x[241] 1
x[242] 1
x[243] 0
x[244] 0
x[245] 1
x[246] 1
x[247] 0
x[248] 1
x[249] 0
x[250] 0
x[251] 0
x[252] 0
x[253] 1
x[254] 0
x[255] 1
x[256] 1
x[257] 1
x[258] 0
x[259] 1
x[260] 0
x[261] 1
x[262] 0
x[263] 1
x[264] 1
x[265] 0
x[266] 0
x[267] 1
x[268] 0
x[269] 0
x[270] 0
x[271] 1
x[272] 0
x[273] 1
x[274] 1
x[275] 0
x[276] 0
x[277] 0
x[278] 0
x[279] 0
x[280] 0
x[281] 0
x[282] 0
x[283] 0
x[284] 0
x[285] 0
x[286] 0
x[287] 1
x[288] 0
x[289] 0
x[290] 1
x[291] 1
x[292] 1
x[293] 1
x[294] 1
x[295] 1
x[296] 1
x[297] 1
x[298] 0
x[299] 1
x[300] 0
x[301] 0
x[302] 0
x[303] 1
x[304] 1
x[305] 1
x[306] 0
x[307] 1
x[308] 0
x[309] 0
x[310] 1
x[311] 0
x[312] 0
x[313] 1
x[314] 0
x[315] 0
x[316] 1
x[317] 0
x[318] 1
x[319] 0
x[320] 0
x[321] 1
x[322] 0
x[323] 0
x[324] 1
x[325] 0
x[326] 0
x[327] 0
x[328] 0
x[329] 1
x[330] 1
x[331] 0
x[332] 1
x[333] 0
x[334] 0
x[335] 1
x[336] 1
x[337] 1
x[338] 1
x[339] 1
x[340] 0
x[341] 1
x[342] 1
x[343] 1
x[344] 0
x[345] 0
x[346] 1
x[347] 0
x[348] 1
x[349] 1
x[350] 1
x[351] 1
x[352] 0
x[353] 1
x[354] 1
x[355] 1
x[356] 0
x[357] 0
x[358] 0
x[359] 1
x[360] 0
x[361] 1
x[362] 1
x[363] 1
x[364] 0
x[365] 0
x[366] 0
x[367] 0
x[368] 0
x[369] 1
x[370] 0
x[371] 0
x[372] 0
x[373] 1
x[374] 1
x[375] 0
x[376] 0
x[377] 0
x[378] 1
x[379] 1
x[380] 0
x[381] 0
x[382] 1
x[383] 0
x[384] 1
x[385] 0
x[386] 0
x[387] 0
x[388] 0
x[389] 0
x[390] 0
x[391] 1
x[392] 1
x[393] 0
x[394] 1
x[395] 0
x[396] 1
x[397] 1
x[398] 1
x[399] 0
x[400] 1
x[401] 1
x[402] 0
x[403] 1
x[404] 1
x[405] 1
x[406] 1
x[407] 1
x[408] 0
x[409] 0
x[410] 1
x[411] 1
x[412] 1
x[413] 1
x[414] 0
x[415] 1
x[416] 0
x[417] 0
x[418] 1
x[419] 1
x[420] 0
x[421] 1
x[422] 0
x[423] 1
x[424] 0
x[425] 0
x[426] 0
x[427] 0
x[428] 0
x[429] 0
x[430] 1
x[431] 0
x[432] 0
x[433] 1
x[434] 1
x[435] 1
x[436] 0
x[437] 1
x[438] 1
x[439] 0
x[440] 0
x[441] 1
x[442] 1
x[443] 1
x[444] 1
x[445] 1
x[446] 0
x[447] 0
x[448] 0
x[449] 0
x[450] 1
x[451] 0
x[452] 1
x[453] 0
x[454] 0
x[455] 1
x[456] 1
x[457] 1
x[458] 1
x[459] 1
x[460] 1
x[461] 0
x[462] 0
x[463] 0
x[464] 0
x[465] 0
x[466] 0
x[467] 1
x[468] 1
x[469] 0
x[470] 0
x[471] 1
x[472] 1
x[473] 0
x[474] 1
x[475] 1
x[476] 0
x[477] 1
x[478] 0
x[479] 0
x[480] 0
x[481] 0
x[482] 1
x[483] 1
x[484] 1
x[485] 0
x[486] 1
x[487] 1
x[488] 0
x[489] 1
x[490] 0
x[491] 1
x[492] 0
x[493] 1
x[494] 0
x[495] 1
x[496] 1
x[497] 0
x[498] 1
x[499] 1
x[500] 0
x[501] 0
x[502] 1
x[503] 0
x[504] 0
x[505] 0
x[506] 0
x[507] 0
x[508] 0
x[509] 0
x[510] 0
x[511] 1
x[512] 0
x[513] 0
x[514] 0
x[515] 0
x[516] 0
x[517] 1
x[518] 0
x[519] 0
x[520] 0
x[521] 0
x[522] 1
x[523] 0
x[524] 1
x[525] 0
x[526] 1
x[527] 1
x[528] 1
x[529] 1
x[530] 0
x[531] 0
x[532] 0
x[533] 0
x[534] 1
x[535] 0
x[536] 1
x[537] 1
x[538] 1
x[539] 1
x[540] 1
x[541] 0
x[542] 1
x[543] 1
x[544] 0
x[545] 0
x[546] 0
x[547] 0
x[548] 0
x[549] 0
x[550] 0
x[551] 1
x[552] 0
x[553] 1
x[554] 0
x[555] 1
x[556] 0
x[557] 0
x[558] 0
x[559] 1
x[560] 1
x[561] 0
x[562] 0
x[563] 1
x[564] 1
x[565] 0
x[566] 0
x[567] 1
x[568] 0
x[569] 0
x[570] 1
x[571] 0
x[572] 1
x[573] 1
x[574] 0
x[575] 1
x[576] 1
x[577] 1
x[578] 1
x[579] 1
x[580] 1
x[581] 0
x[582] 1
x[583] 0
x[584] 1
x[585] 1
x[586] 0
x[587] 0
x[588] 1
x[589] 0
x[590] 0
x[591] 1
x[592] 0
x[593] 0
x[594] 0
x[595] 0
x[596] 0
x[597] 0
x[598] 0
x[599] 0
x[600] 1
x[601] 0
x[602] 1
x[603] 1
x[604] 1
x[605] 0
x[606] 0
x[607] 0
x[608] 0
x[609] 0
x[610] 1
x[611] 0
x[612] 1
x[613] 1
x[614] 1
x[615] 0
x[616] 1
x[617] 1
x[618] 0
x[619] 0
x[620] 1
x[621] 0
x[622] 1
x[623] 0
x[624] 1
x[625] 1
x[626] 1
x[627] 1
x[628] 1
x[629] 0
x[630] 0
x[631] 0
x[632] 1
x[633] 1
x[634] 0
x[635] 0
x[636] 1
x[637] 0
x[638] 0
x[639] 0
x[640] 0
x[641] 0
x[642] 0
x[643] 1
x[644] 0
x[645] 1
x[646] 1
x[647] 0
x[648] 1
x[649] 0
x[650] 1
x[651] 1
x[652] 1
x[653] 1
x[654] 0
x[655] 1
x[656] 0
x[657] 1
x[658] 0
x[659] 0
x[660] 1
x[661] 0
x[662] 0
x[663] 1
x[664] 1
x[665] 0
x[666] 0
x[667] 0
x[668] 0
x[669] 0
x[670] 0
x[671] 0
x[672] 1
x[673] 0
x[674] 0
x[675] 1
x[676] 0
x[677] 1
x[678] 0
x[679] 0
x[680] 0
x[681] 0
x[682] 1
x[683] 0
x[684] 0
x[685] 1
x[686] 0
x[687] 0
x[688] 1
x[689] 1
x[690] 1
x[691] 1
x[692] 0
x[693] 0
x[694] 0
x[695] 1
x[696] 1
x[697] 0
x[698] 1
x[699] 1
x[700] 0
x[701] 1
x[702] 0
x[703] 1
x[704] 0
x[705] 1
x[706] 1
x[707] 1
x[708] 1
x[709] 1
x[710] 1
x[711] 0
x[712] 0
x[713] 1
x[714] 0
x[715] 1
x[716] 1
x[717] 0
x[718] 0
x[719] 0
x[720] 1
x[721] 1
x[722] 1
x[723] 1
x[724] 0
x[725] 1
x[726] 0
x[727] 0
x[728] 0
x[729] 1
x[730] 0
x[731] 0
x[732] 1
x[733] 1
x[734] 0
x[735] 0
x[736] 1
x[737] 0
x[738] 1
x[739] 1
x[740] 1
x[741] 0
x[742] 1
x[743] 0
x[744] 0
x[745] 0
x[746] 0
x[747] 0
x[748] 0
x[749] 0
x[750] 1
x[751] 0
x[752] 1
x[753] 0
x[754] 0
x[755] 0
x[756] 0
x[757] 1
x[758] 0
x[759] 0
x[760] 0
x[761] 1
x[762] 1
x[763] 1
x[764] 0
x[765] 1
x[766] 0
x[767] 0
x[768] 0
x[769] 0
x[770] 1
x[771] 0
x[772] 1
x[773] 1
x[774] 0
x[775] 0
x[776] 0
x[777] 0
x[778] 1
x[779] 1
x[780] 0
x[781] 0
x[782] 1
x[783] 0
x[784] 0
x[785] 1
x[786] 0
x[787] 0
x[788] 0
x[789] 1
x[790] 0
x[791] 0
x[792] 1
x[793] 0
x[794] 0
x[795] 1
x[796] 1
x[797] 0
x[798] 1
x[799] 0
x[800] 1
x[801] 1
x[802] 1
x[803] 1
x[804] 0
x[805] 0
x[806] 0
x[807] 0
x[808] 0
x[809] 1
x[810] 0
x[811] 1
x[812] 1
x[813] 1
x[814] 0
x[815] 0
x[816] 1
x[817] 0
x[818] 1
x[819] 0
x[820] 0
x[821] 1
x[822] 0
x[823] 1
x[824] 0
x[825] 0
x[826] 0
x[827] 1
x[828] 1
x[829] 1
x[830] 1
x[831] 0
x[832] 0
x[833] 0
x[834] 1
x[835] 1
x[836] 0
x[837] 0
x[838] 0
x[839] 0
x[840] 1
x[841] 0
x[842] 0
x[843] 1
x[844] 1
x[845] 0
x[846] 1
x[847] 0
x[848] 0
x[849] 1
x[850] 0
x[851] 0
x[852] 0
x[853] 1
x[854] 0
x[855] 0
x[856] 0
x[857] 1
x[858] 0
x[859] 0
x[860] 0
x[861] 1
x[862] 1
x[863] 0
x[864] 1
x[865] 0
x[866] 1
x[867] 1
x[868] 0
x[869] 1
x[870] 0
x[871] 0
x[872] 0
x[873] 1
x[874] 0
x[875] 0
x[876] 0
x[877] 1
x[878] 0
x[879] 1
x[880] 0
x[881] 1
x[882] 0
x[883] 0
x[884] 1
x[885] 0
x[886] 1
x[887] 0
x[888] 0
x[889] 1
x[890] 1
x[891] 0
x[892] 1
x[893] 0
x[894] 1
x[895] 1
x[896] 1
x[897] 1
x[898] 1
x[899] 1
x[900] 1
x[901] 0
x[902] 1
x[903] 0
x[904] 1
x[905] 1
x[906] 0
x[907] 0
x[908] 1
x[909] 0
x[910] 0
x[911] 1
x[912] 1
x[913] 0
x[914] 0
x[915] 1
x[916] 1
x[917] 1
x[918] 0
x[919] 0
x[920] 0
x[921] 0
x[922] 1
x[923] 1
x[924] 0
x[925] 0
x[926] 1
x[927] 0
x[928] 1
x[929] 0
x[930] 1
x[931] 1
x[932] 0
x[933] 0
x[934] 0
x[935] 0
x[936] 1
x[937] 0
x[938] 1
x[939] 0
x[940] 1
x[941] 1
x[942] 1
x[943] 1
x[944] 0
x[945] 1
x[946] 0
x[947] 1
x[948] 1
x[949] 0
x[950] 0
x[951] 1
x[952] 1
x[953] 0
x[954] 1
x[955] 0
x[956] 0
x[957] 0
x[958] 0
x[959] 0
x[960] 1
x[961] 0
x[962] 1
x[963] 1
x[964] 0
x[965] 1
x[966] 1
x[967] 1
x[968] 1
x[969] 0
x[970] 1
x[971] 1
x[972] 0
x[973] 1
x[974] 1
x[975] 0
x[976] 1
x[977] 1
x[978] 1
x[979] 1
x[980] 1
x[981] 0
x[982] 0
x[983] 0
x[984] 0
x[985] 0
x[986] 1
x[987] 1
x[988] 1
x[989] 0
x[990] 0
x[991] 0
x[992] 1
x[993] 1
x[994] 0
x[995] 0
x[996] 1
x[997] 0
x[998] 0
x[999] 1
